NAME : amz0432.76841_76841.tour
COMMENT : Cost = 76841_76841
COMMENT : Found by LKH-AMZ [Keld Helsgaun] Sun May 11 14:32:02 2025
COMMENT : TW viol.: 0 #: 0
TYPE : TOUR
DIMENSION : 71
TOUR_SECTION
61
28
15
10
40
51
67
31
39
54
45
48
11
3
70
52
38
32
36
18
55
44
62
69
9
50
56
30
26
7
42
64
22
24
2
5
25
35
13
46
53
27
43
65
14
29
59
16
6
12
57
4
33
71
63
21
19
37
41
17
60
66
34
8
1
23
20
47
68
49
58
-1
EOF
